c turning on binary mode checking
c parsing input formula with 259840 variables and 1039924 clauses
c finished parsing, read 22914920 bytes from proof file
c detected empty clause; start verification via backward checking
c 15273 of 1039924 clauses in core                            
c 18348 of 585764 lemmas in core using 171938 resolution steps
c 0 RAT lemmas in core; 1316 redundant literals in core lemmas
s VERIFIED
c verification time: 3.079 seconds
